NAME : 10_3_3_1_(24).dat
COMMENT : Henke, Speranza, Wäscher, 2015
TYPE : MCVRP
DIMENSION : 11
EDGE_WEIGHT_TYPE : DISTANCE_MATRIX
CAPACITY : 1000
VEHICLES : 3
PRODUCT TYPES : 3
COMPARTMENTS : 3
NODE_COORD_SECTION
1 50 50
2 35.98 22.76
3 53.14 91.96
4 55.7 5.14
5 86.98 58.3
6 20.41 7.03
7 88.78 84.16
8 3.48 64.49
9 33.16 22.44
10 93.91 11.66
11 1.46 18.72
DEMAND_SECTION
1 0 0 0
2 170 0 0
3 0 406 0
4 0 0 48
5 0 0 61
6 30 0 0
7 0 114 0
8 236 0 0
9 209 0 0
10 0 0 239
11 222 0 0
DEPOT_SECTION
1
EOF